22	3

10	10	10	

0	0	0	0	3	2	3	4	
1	3	5	2	2	6	7	
2	5	4	3	3	5	7	8	
1	5	2	2	2	6	8	
1	4	1	4	2	9	11	
3	5	5	4	2	10	12	
2	3	5	2	2	9	10	
2	2	4	4	2	9	12	
1	3	2	2	1	16	
2	3	2	4	1	13	
8	3	3	2	2	14	15	
4	4	1	4	1	13	
6	1	4	4	2	17	19	
8	2	2	2	1	18	
8	5	5	4	1	17	
3	1	5	4	1	17	
1	4	5	4	1	20	
3	3	2	3	2	20	21	
7	5	3	3	1	20	
4	2	4	6	1	22	
1	1	6	2	1	22	
0	0	0	0	0	
